c WMC file for PBN EPFL/random_control/ctrl_distill_EPFL/random_control/ctrl_miter written by probABC
p cnf 467 1320
28 -1 2 0
-28 1 0
-28 -2 0
29 -4 -5 0
-29 4 0
-29 5 0
30 -28 -29 0
-30 28 0
-30 29 0
31 -2 -4 0
-31 2 0
-31 4 0
32 -5 -31 0
-32 5 0
-32 31 0
33 30 32 0
-33 -30 0
-33 -32 0
34 3 33 0
-34 -3 0
-34 -33 0
35 2 -4 0
-35 -2 0
-35 4 0
36 -5 -35 0
-36 5 0
-36 35 0
37 -8 36 0
-37 8 0
-37 -36 0
38 8 -36 0
-38 -8 0
-38 36 0
39 37 38 0
-39 -37 0
-39 -38 0
40 4 5 0
-40 -4 0
-40 -5 0
41 29 40 0
-41 -29 0
-41 -40 0
42 -9 41 0
-42 9 0
-42 -41 0
43 9 -41 0
-43 -9 0
-43 41 0
44 42 43 0
-44 -42 0
-44 -43 0
45 -2 -44 0
-45 2 0
-45 44 0
46 -10 45 0
-46 10 0
-46 -45 0
47 10 -45 0
-47 -10 0
-47 45 0
48 46 47 0
-48 -46 0
-48 -47 0
49 -39 -48 0
-49 39 0
-49 48 0
50 -3 49 0
-50 3 0
-50 -49 0
51 34 50 0
-51 -34 0
-51 -50 0
52 1 29 0
-52 -1 0
-52 -29 0
53 1 52 0
-53 -1 0
-53 -52 0
54 2 53 0
-54 -2 0
-54 -53 0
55 4 40 0
-55 -4 0
-55 -40 0
56 -2 55 0
-56 2 0
-56 -55 0
57 54 56 0
-57 -54 0
-57 -56 0
58 3 57 0
-58 -3 0
-58 -57 0
59 4 -5 0
-59 -4 0
-59 5 0
60 4 59 0
-60 -4 0
-60 -59 0
61 -11 60 0
-61 11 0
-61 -60 0
62 11 -60 0
-62 -11 0
-62 60 0
63 61 62 0
-63 -61 0
-63 -62 0
64 -2 -63 0
-64 2 0
-64 63 0
65 -2 64 0
-65 2 0
-65 -64 0
66 -3 65 0
-66 3 0
-66 -65 0
67 58 66 0
-67 -58 0
-67 -66 0
68 1 -44 0
-68 -1 0
-68 44 0
69 -4 29 0
-69 4 0
-69 -29 0
70 -12 69 0
-70 12 0
-70 -69 0
71 12 -69 0
-71 -12 0
-71 69 0
72 70 71 0
-72 -70 0
-72 -71 0
73 -1 -72 0
-73 1 0
-73 72 0
74 68 73 0
-74 -68 0
-74 -73 0
75 -2 74 0
-75 2 0
-75 -74 0
76 54 75 0
-76 -54 0
-76 -75 0
77 3 76 0
-77 -3 0
-77 -76 0
78 -13 77 0
-78 13 0
-78 -77 0
79 13 -77 0
-79 -13 0
-79 77 0
80 78 79 0
-80 -78 0
-80 -79 0
81 3 -80 0
-81 -3 0
-81 80 0
82 -14 81 0
-82 14 0
-82 -81 0
83 14 -81 0
-83 -14 0
-83 81 0
84 82 83 0
-84 -82 0
-84 -83 0
85 1 4 0
-85 -1 0
-85 -4 0
86 59 -85 0
-86 -59 0
-86 85 0
87 -1 -44 0
-87 1 0
-87 44 0
88 86 87 0
-88 -86 0
-88 -87 0
89 2 88 0
-89 -2 0
-89 -88 0
90 56 89 0
-90 -56 0
-90 -89 0
91 3 90 0
-91 -3 0
-91 -90 0
92 -3 55 0
-92 3 0
-92 -55 0
93 91 92 0
-93 -91 0
-93 -92 0
94 1 -4 0
-94 -1 0
-94 4 0
95 -5 -6 0
-95 5 0
-95 6 0
96 -94 -95 0
-96 94 0
-96 95 0
97 -4 7 0
-97 4 0
-97 -7 0
98 29 -97 0
-98 -29 0
-98 97 0
99 -4 6 0
-99 4 0
-99 -6 0
100 29 -99 0
-100 -29 0
-100 99 0
101 -4 -6 0
-101 4 0
-101 6 0
102 100 101 0
-102 -100 0
-102 -101 0
103 -7 102 0
-103 7 0
-103 -102 0
104 98 103 0
-104 -98 0
-104 -103 0
105 -1 104 0
-105 1 0
-105 -104 0
106 96 105 0
-106 -96 0
-106 -105 0
107 -2 106 0
-107 2 0
-107 -106 0
108 3 107 0
-108 -3 0
-108 -107 0
109 -1 55 0
-109 1 0
-109 -55 0
110 -15 109 0
-110 15 0
-110 -109 0
111 15 -109 0
-111 -15 0
-111 109 0
112 110 111 0
-112 -110 0
-112 -111 0
113 -1 -112 0
-113 1 0
-113 112 0
114 -3 113 0
-114 3 0
-114 -113 0
115 108 114 0
-115 -108 0
-115 -114 0
116 -4 -7 0
-116 4 0
-116 7 0
117 98 116 0
-117 -98 0
-117 -116 0
118 -2 117 0
-118 2 0
-118 -117 0
119 -16 118 0
-119 16 0
-119 -118 0
120 16 -118 0
-120 -16 0
-120 118 0
121 119 120 0
-121 -119 0
-121 -120 0
122 3 -121 0
-122 -3 0
-122 121 0
123 -2 56 0
-123 2 0
-123 -56 0
124 -3 123 0
-124 3 0
-124 -123 0
125 122 124 0
-125 -122 0
-125 -124 0
126 2 29 0
-126 -2 0
-126 -29 0
127 -17 126 0
-127 17 0
-127 -126 0
128 17 -126 0
-128 -17 0
-128 126 0
129 127 128 0
-129 -127 0
-129 -128 0
130 40 129 0
-130 -40 0
-130 -129 0
131 40 -52 0
-131 -40 0
-131 52 0
132 -1 -63 0
-132 1 0
-132 63 0
133 131 132 0
-133 -131 0
-133 -132 0
134 -2 133 0
-134 2 0
-134 -133 0
135 130 134 0
-135 -130 0
-135 -134 0
136 3 135 0
-136 -3 0
-136 -135 0
137 -3 -4 0
-137 3 0
-137 4 0
138 -5 -137 0
-138 5 0
-138 137 0
139 136 138 0
-139 -136 0
-139 -138 0
140 2 3 0
-140 -2 0
-140 -3 0
141 54 -140 0
-141 -54 0
-141 140 0
142 -2 88 0
-142 2 0
-142 -88 0
143 30 142 0
-143 -30 0
-143 -142 0
144 -18 143 0
-144 18 0
-144 -143 0
145 18 -143 0
-145 -18 0
-145 143 0
146 144 145 0
-146 -144 0
-146 -145 0
147 -3 -146 0
-147 3 0
-147 146 0
148 141 147 0
-148 -141 0
-148 -147 0
149 1 55 0
-149 -1 0
-149 -55 0
150 -19 149 0
-150 19 0
-150 -149 0
151 19 -149 0
-151 -19 0
-151 149 0
152 150 151 0
-152 -150 0
-152 -151 0
153 1 -152 0
-153 -1 0
-153 152 0
154 -2 153 0
-154 2 0
-154 -153 0
155 -2 3 0
-155 2 0
-155 -3 0
156 -20 155 0
-156 20 0
-156 -155 0
157 20 -155 0
-157 -20 0
-157 155 0
158 156 157 0
-158 -156 0
-158 -157 0
159 154 158 0
-159 -154 0
-159 -158 0
160 -2 -3 0
-160 2 0
-160 3 0
161 -44 -160 0
-161 44 0
-161 160 0
162 -21 161 0
-162 21 0
-162 -161 0
163 21 -161 0
-163 -21 0
-163 161 0
164 162 163 0
-164 -162 0
-164 -163 0
165 159 -164 0
-165 -159 0
-165 164 0
166 -129 154 0
-166 129 0
-166 -154 0
167 3 166 0
-167 -3 0
-167 -166 0
168 -22 167 0
-168 22 0
-168 -167 0
169 22 -167 0
-169 -22 0
-169 167 0
170 168 169 0
-170 -168 0
-170 -169 0
171 66 -170 0
-171 -66 0
-171 170 0
172 94 132 0
-172 -94 0
-172 -132 0
173 -2 172 0
-173 2 0
-173 -172 0
174 3 130 0
-174 -3 0
-174 -130 0
175 173 -174 0
-175 -173 0
-175 174 0
176 92 175 0
-176 -92 0
-176 -175 0
177 -23 176 0
-177 23 0
-177 -176 0
178 23 -176 0
-178 -23 0
-178 176 0
179 177 178 0
-179 -177 0
-179 -178 0
180 1 -63 0
-180 -1 0
-180 63 0
181 -24 180 0
-181 24 0
-181 -180 0
182 24 -180 0
-182 -24 0
-182 180 0
183 181 182 0
-183 -181 0
-183 -182 0
184 1 -183 0
-184 -1 0
-184 183 0
185 2 184 0
-185 -2 0
-185 -184 0
186 2 185 0
-186 -2 0
-186 -185 0
187 3 186 0
-187 -3 0
-187 -186 0
188 3 187 0
-188 -3 0
-188 -187 0
189 2 172 0
-189 -2 0
-189 -172 0
190 64 189 0
-190 -64 0
-190 -189 0
191 3 190 0
-191 -3 0
-191 -190 0
192 2 -5 0
-192 -2 0
-192 5 0
193 -2 -72 0
-193 2 0
-193 72 0
194 192 193 0
-194 -192 0
-194 -193 0
195 -3 194 0
-195 3 0
-195 -194 0
196 191 195 0
-196 -191 0
-196 -195 0
197 -1 132 0
-197 1 0
-197 -132 0
198 -3 197 0
-198 3 0
-198 -197 0
199 -3 198 0
-199 3 0
-199 -198 0
200 -3 184 0
-200 3 0
-200 -184 0
201 -3 200 0
-201 3 0
-201 -200 0
202 1 -72 0
-202 -1 0
-202 72 0
203 1 202 0
-203 -1 0
-203 -202 0
204 2 203 0
-204 -2 0
-204 -203 0
205 2 204 0
-205 -2 0
-205 -204 0
206 -3 205 0
-206 3 0
-206 -205 0
207 -3 206 0
-207 3 0
-207 -206 0
208 -1 73 0
-208 1 0
-208 -73 0
209 2 208 0
-209 -2 0
-209 -208 0
210 2 209 0
-210 -2 0
-210 -209 0
211 -3 210 0
-211 3 0
-211 -210 0
212 -3 211 0
-212 3 0
-212 -211 0
213 -2 208 0
-213 2 0
-213 -208 0
214 -2 213 0
-214 2 0
-214 -213 0
215 -3 214 0
-215 3 0
-215 -214 0
216 -3 215 0
-216 3 0
-216 -215 0
217 -2 203 0
-217 2 0
-217 -203 0
218 -2 217 0
-218 2 0
-218 -217 0
219 -3 218 0
-219 3 0
-219 -218 0
220 -3 219 0
-220 3 0
-220 -219 0
221 -3 -63 0
-221 3 0
-221 63 0
222 -3 221 0
-222 3 0
-222 -221 0
223 -1 -2 0
-223 1 0
-223 2 0
224 102 -223 0
-224 -102 0
-224 223 0
225 -28 73 0
-225 28 0
-225 -73 0
226 3 225 0
-226 -3 0
-226 -225 0
227 224 -226 0
-227 -224 0
-227 226 0
228 -2 53 0
-228 2 0
-228 -53 0
229 -129 228 0
-229 129 0
-229 -228 0
230 -3 229 0
-230 3 0
-230 -229 0
231 227 230 0
-231 -227 0
-231 -230 0
232 -6 -29 0
-232 6 0
-232 29 0
233 7 232 0
-233 -7 0
-233 -232 0
234 7 233 0
-234 -7 0
-234 -233 0
235 -1 234 0
-235 1 0
-235 -234 0
236 -1 235 0
-236 1 0
-236 -235 0
237 -25 236 0
-237 25 0
-237 -236 0
238 25 -236 0
-238 -25 0
-238 236 0
239 237 238 0
-239 -237 0
-239 -238 0
240 -2 -239 0
-240 2 0
-240 239 0
241 209 240 0
-241 -209 0
-241 -240 0
242 3 241 0
-242 -3 0
-242 -241 0
243 3 242 0
-243 -3 0
-243 -242 0
244 104 -223 0
-244 -104 0
-244 223 0
245 3 244 0
-245 -3 0
-245 -244 0
246 230 245 0
-246 -230 0
-246 -245 0
247 2 153 0
-247 -2 0
-247 -153 0
248 -2 113 0
-248 2 0
-248 -113 0
249 -26 248 0
-249 26 0
-249 -248 0
250 26 -248 0
-250 -26 0
-250 248 0
251 249 250 0
-251 -249 0
-251 -250 0
252 247 -251 0
-252 -247 0
-252 251 0
253 3 252 0
-253 -3 0
-253 -252 0
254 3 253 0
-254 -3 0
-254 -253 0
255 2 113 0
-255 -2 0
-255 -113 0
256 2 255 0
-256 -2 0
-256 -255 0
257 3 256 0
-257 -3 0
-257 -256 0
258 3 257 0
-258 -3 0
-258 -257 0
259 -2 41 0
-259 2 0
-259 -41 0
260 36 259 0
-260 -36 0
-260 -259 0
261 -3 260 0
-261 3 0
-261 -260 0
262 34 261 0
-262 -34 0
-262 -261 0
263 -2 60 0
-263 2 0
-263 -60 0
264 -2 263 0
-264 2 0
-264 -263 0
265 -3 264 0
-265 3 0
-265 -264 0
266 58 265 0
-266 -58 0
-266 -265 0
267 1 41 0
-267 -1 0
-267 -41 0
268 -1 69 0
-268 1 0
-268 -69 0
269 267 268 0
-269 -267 0
-269 -268 0
270 -2 269 0
-270 2 0
-270 -269 0
271 54 270 0
-271 -54 0
-271 -270 0
272 3 271 0
-272 -3 0
-272 -271 0
273 3 272 0
-273 -3 0
-273 -272 0
274 -1 41 0
-274 1 0
-274 -41 0
275 86 274 0
-275 -86 0
-275 -274 0
276 2 275 0
-276 -2 0
-276 -275 0
277 56 276 0
-277 -56 0
-277 -276 0
278 3 277 0
-278 -3 0
-278 -277 0
279 92 278 0
-279 -92 0
-279 -278 0
280 -1 109 0
-280 1 0
-280 -109 0
281 -3 280 0
-281 3 0
-281 -280 0
282 108 281 0
-282 -108 0
-282 -281 0
283 3 118 0
-283 -3 0
-283 -118 0
284 124 283 0
-284 -124 0
-284 -283 0
285 40 -126 0
-285 -40 0
-285 126 0
286 -1 60 0
-286 1 0
-286 -60 0
287 131 286 0
-287 -131 0
-287 -286 0
288 -2 287 0
-288 2 0
-288 -287 0
289 285 288 0
-289 -285 0
-289 -288 0
290 3 289 0
-290 -3 0
-290 -289 0
291 138 290 0
-291 -138 0
-291 -290 0
292 -2 275 0
-292 2 0
-292 -275 0
293 30 292 0
-293 -30 0
-293 -292 0
294 -3 293 0
-294 3 0
-294 -293 0
295 141 294 0
-295 -141 0
-295 -294 0
296 1 149 0
-296 -1 0
-296 -149 0
297 -2 296 0
-297 2 0
-297 -296 0
298 -155 297 0
-298 155 0
-298 -297 0
299 41 -160 0
-299 -41 0
-299 160 0
300 298 299 0
-300 -298 0
-300 -299 0
301 126 297 0
-301 -126 0
-301 -297 0
302 3 301 0
-302 -3 0
-302 -301 0
303 265 302 0
-303 -265 0
-303 -302 0
304 94 286 0
-304 -94 0
-304 -286 0
305 -2 304 0
-305 2 0
-305 -304 0
306 3 285 0
-306 -3 0
-306 -285 0
307 305 -306 0
-307 -305 0
-307 306 0
308 92 307 0
-308 -92 0
-308 -307 0
309 1 60 0
-309 -1 0
-309 -60 0
310 1 309 0
-310 -1 0
-310 -309 0
311 2 310 0
-311 -2 0
-311 -310 0
312 2 311 0
-312 -2 0
-312 -311 0
313 3 312 0
-313 -3 0
-313 -312 0
314 3 313 0
-314 -3 0
-314 -313 0
315 2 304 0
-315 -2 0
-315 -304 0
316 263 315 0
-316 -263 0
-316 -315 0
317 3 316 0
-317 -3 0
-317 -316 0
318 -2 69 0
-318 2 0
-318 -69 0
319 192 318 0
-319 -192 0
-319 -318 0
320 -3 319 0
-320 3 0
-320 -319 0
321 317 320 0
-321 -317 0
-321 -320 0
322 -1 286 0
-322 1 0
-322 -286 0
323 -3 322 0
-323 3 0
-323 -322 0
324 -3 323 0
-324 3 0
-324 -323 0
325 -3 310 0
-325 3 0
-325 -310 0
326 -3 325 0
-326 3 0
-326 -325 0
327 1 69 0
-327 -1 0
-327 -69 0
328 1 327 0
-328 -1 0
-328 -327 0
329 2 328 0
-329 -2 0
-329 -328 0
330 2 329 0
-330 -2 0
-330 -329 0
331 -3 330 0
-331 3 0
-331 -330 0
332 -3 331 0
-332 3 0
-332 -331 0
333 -1 268 0
-333 1 0
-333 -268 0
334 2 333 0
-334 -2 0
-334 -333 0
335 2 334 0
-335 -2 0
-335 -334 0
336 -3 335 0
-336 3 0
-336 -335 0
337 -3 336 0
-337 3 0
-337 -336 0
338 -2 333 0
-338 2 0
-338 -333 0
339 -2 338 0
-339 2 0
-339 -338 0
340 -3 339 0
-340 3 0
-340 -339 0
341 -3 340 0
-341 3 0
-341 -340 0
342 -2 328 0
-342 2 0
-342 -328 0
343 -2 342 0
-343 2 0
-343 -342 0
344 -3 343 0
-344 3 0
-344 -343 0
345 -3 344 0
-345 3 0
-345 -344 0
346 -3 60 0
-346 3 0
-346 -60 0
347 -3 346 0
-347 3 0
-347 -346 0
348 -28 268 0
-348 28 0
-348 -268 0
349 3 348 0
-349 -3 0
-349 -348 0
350 224 -349 0
-350 -224 0
-350 349 0
351 126 228 0
-351 -126 0
-351 -228 0
352 -3 351 0
-352 3 0
-352 -351 0
353 350 352 0
-353 -350 0
-353 -352 0
354 -2 236 0
-354 2 0
-354 -236 0
355 334 354 0
-355 -334 0
-355 -354 0
356 3 355 0
-356 -3 0
-356 -355 0
357 3 356 0
-357 -3 0
-357 -356 0
358 245 352 0
-358 -245 0
-358 -352 0
359 2 296 0
-359 -2 0
-359 -296 0
360 -2 280 0
-360 2 0
-360 -280 0
361 359 360 0
-361 -359 0
-361 -360 0
362 3 361 0
-362 -3 0
-362 -361 0
363 3 362 0
-363 -3 0
-363 -362 0
364 2 280 0
-364 -2 0
-364 -280 0
365 2 364 0
-365 -2 0
-365 -364 0
366 3 365 0
-366 -3 0
-366 -365 0
367 3 366 0
-367 -3 0
-367 -366 0
368 -51 262 0
-368 51 0
-368 -262 0
369 51 -262 0
-369 -51 0
-369 262 0
370 368 369 0
-370 -368 0
-370 -369 0
371 67 -266 0
-371 -67 0
-371 266 0
372 -67 266 0
-372 67 0
-372 -266 0
373 371 372 0
-373 -371 0
-373 -372 0
374 -84 -273 0
-374 84 0
-374 273 0
375 84 273 0
-375 -84 0
-375 -273 0
376 374 375 0
-376 -374 0
-376 -375 0
377 93 -279 0
-377 -93 0
-377 279 0
378 -93 279 0
-378 93 0
-378 -279 0
379 377 378 0
-379 -377 0
-379 -378 0
380 115 -282 0
-380 -115 0
-380 282 0
381 -115 282 0
-381 115 0
-381 -282 0
382 380 381 0
-382 -380 0
-382 -381 0
383 125 -284 0
-383 -125 0
-383 284 0
384 -125 284 0
-384 125 0
-384 -284 0
385 383 384 0
-385 -383 0
-385 -384 0
386 -139 291 0
-386 139 0
-386 -291 0
387 139 -291 0
-387 -139 0
-387 291 0
388 386 387 0
-388 -386 0
-388 -387 0
389 -148 295 0
-389 148 0
-389 -295 0
390 148 -295 0
-390 -148 0
-390 295 0
391 389 390 0
-391 -389 0
-391 -390 0
392 -165 300 0
-392 165 0
-392 -300 0
393 165 -300 0
-393 -165 0
-393 300 0
394 392 393 0
-394 -392 0
-394 -393 0
395 171 -303 0
-395 -171 0
-395 303 0
396 -171 303 0
-396 171 0
-396 -303 0
397 395 396 0
-397 -395 0
-397 -396 0
398 -179 -308 0
-398 179 0
-398 308 0
399 179 308 0
-399 -179 0
-399 -308 0
400 398 399 0
-400 -398 0
-400 -399 0
401 188 -314 0
-401 -188 0
-401 314 0
402 -188 314 0
-402 188 0
-402 -314 0
403 401 402 0
-403 -401 0
-403 -402 0
404 -196 321 0
-404 196 0
-404 -321 0
405 196 -321 0
-405 -196 0
-405 321 0
406 404 405 0
-406 -404 0
-406 -405 0
407 199 -324 0
-407 -199 0
-407 324 0
408 -199 324 0
-408 199 0
-408 -324 0
409 407 408 0
-409 -407 0
-409 -408 0
410 201 -326 0
-410 -201 0
-410 326 0
411 -201 326 0
-411 201 0
-411 -326 0
412 410 411 0
-412 -410 0
-412 -411 0
413 207 -332 0
-413 -207 0
-413 332 0
414 -207 332 0
-414 207 0
-414 -332 0
415 413 414 0
-415 -413 0
-415 -414 0
416 212 -337 0
-416 -212 0
-416 337 0
417 -212 337 0
-417 212 0
-417 -337 0
418 416 417 0
-418 -416 0
-418 -417 0
419 216 -341 0
-419 -216 0
-419 341 0
420 -216 341 0
-420 216 0
-420 -341 0
421 419 420 0
-421 -419 0
-421 -420 0
422 220 -345 0
-422 -220 0
-422 345 0
423 -220 345 0
-423 220 0
-423 -345 0
424 422 423 0
-424 -422 0
-424 -423 0
425 222 -347 0
-425 -222 0
-425 347 0
426 -222 347 0
-426 222 0
-426 -347 0
427 425 426 0
-427 -425 0
-427 -426 0
428 231 -353 0
-428 -231 0
-428 353 0
429 -231 353 0
-429 231 0
-429 -353 0
430 428 429 0
-430 -428 0
-430 -429 0
431 243 -357 0
-431 -243 0
-431 357 0
432 -243 357 0
-432 243 0
-432 -357 0
433 431 432 0
-433 -431 0
-433 -432 0
434 246 -358 0
-434 -246 0
-434 358 0
435 -246 358 0
-435 246 0
-435 -358 0
436 434 435 0
-436 -434 0
-436 -435 0
437 254 -363 0
-437 -254 0
-437 363 0
438 -254 363 0
-438 254 0
-438 -363 0
439 437 438 0
-439 -437 0
-439 -438 0
440 258 -367 0
-440 -258 0
-440 367 0
441 -258 367 0
-441 258 0
-441 -367 0
442 440 441 0
-442 -440 0
-442 -441 0
443 -373 -376 0
-443 373 0
-443 376 0
444 -370 -443 0
-444 370 0
-444 443 0
445 -382 -385 0
-445 382 0
-445 385 0
446 -379 -445 0
-446 379 0
-446 445 0
447 -444 -446 0
-447 444 0
-447 446 0
448 -391 -394 0
-448 391 0
-448 394 0
449 -388 -448 0
-449 388 0
-449 448 0
450 -397 -400 0
-450 397 0
-450 400 0
451 -403 -406 0
-451 403 0
-451 406 0
452 -450 -451 0
-452 450 0
-452 451 0
453 -449 -452 0
-453 449 0
-453 452 0
454 -447 -453 0
-454 447 0
-454 453 0
455 -412 -415 0
-455 412 0
-455 415 0
456 -409 -455 0
-456 409 0
-456 455 0
457 -421 -424 0
-457 421 0
-457 424 0
458 -418 -457 0
-458 418 0
-458 457 0
459 -456 -458 0
-459 456 0
-459 458 0
460 -430 -433 0
-460 430 0
-460 433 0
461 -427 -460 0
-461 427 0
-461 460 0
462 -439 -442 0
-462 439 0
-462 442 0
463 -436 -462 0
-463 436 0
-463 462 0
464 -461 -463 0
-464 461 0
-464 463 0
465 -459 -464 0
-465 459 0
-465 464 0
466 -454 -465 0
-466 454 0
-466 465 0
27 466 0
-27 -466 0
27 0
w 1 0.500000
w 2 0.500000
w 3 0.500000
w 4 0.500000
w 5 0.500000
w 6 0.500000
w 7 0.500000
w 8 0.125000
w 9 0.125000
w 10 0.125000
w 11 0.125000
w 12 0.125000
w 13 0.125000
w 14 0.125000
w 15 0.125000
w 16 0.125000
w 17 0.125000
w 18 0.125000
w 19 0.125000
w 20 0.125000
w 21 0.125000
w 22 0.125000
w 23 0.125000
w 24 0.125000
w 25 0.125000
w 26 0.125000
w 28 -1
w 29 -1
w 30 -1
w 31 -1
w 32 -1
w 33 -1
w 34 -1
w 35 -1
w 36 -1
w 37 -1
w 38 -1
w 39 -1
w 40 -1
w 41 -1
w 42 -1
w 43 -1
w 44 -1
w 45 -1
w 46 -1
w 47 -1
w 48 -1
w 49 -1
w 50 -1
w 51 -1
w 52 -1
w 53 -1
w 54 -1
w 55 -1
w 56 -1
w 57 -1
w 58 -1
w 59 -1
w 60 -1
w 61 -1
w 62 -1
w 63 -1
w 64 -1
w 65 -1
w 66 -1
w 67 -1
w 68 -1
w 69 -1
w 70 -1
w 71 -1
w 72 -1
w 73 -1
w 74 -1
w 75 -1
w 76 -1
w 77 -1
w 78 -1
w 79 -1
w 80 -1
w 81 -1
w 82 -1
w 83 -1
w 84 -1
w 85 -1
w 86 -1
w 87 -1
w 88 -1
w 89 -1
w 90 -1
w 91 -1
w 92 -1
w 93 -1
w 94 -1
w 95 -1
w 96 -1
w 97 -1
w 98 -1
w 99 -1
w 100 -1
w 101 -1
w 102 -1
w 103 -1
w 104 -1
w 105 -1
w 106 -1
w 107 -1
w 108 -1
w 109 -1
w 110 -1
w 111 -1
w 112 -1
w 113 -1
w 114 -1
w 115 -1
w 116 -1
w 117 -1
w 118 -1
w 119 -1
w 120 -1
w 121 -1
w 122 -1
w 123 -1
w 124 -1
w 125 -1
w 126 -1
w 127 -1
w 128 -1
w 129 -1
w 130 -1
w 131 -1
w 132 -1
w 133 -1
w 134 -1
w 135 -1
w 136 -1
w 137 -1
w 138 -1
w 139 -1
w 140 -1
w 141 -1
w 142 -1
w 143 -1
w 144 -1
w 145 -1
w 146 -1
w 147 -1
w 148 -1
w 149 -1
w 150 -1
w 151 -1
w 152 -1
w 153 -1
w 154 -1
w 155 -1
w 156 -1
w 157 -1
w 158 -1
w 159 -1
w 160 -1
w 161 -1
w 162 -1
w 163 -1
w 164 -1
w 165 -1
w 166 -1
w 167 -1
w 168 -1
w 169 -1
w 170 -1
w 171 -1
w 172 -1
w 173 -1
w 174 -1
w 175 -1
w 176 -1
w 177 -1
w 178 -1
w 179 -1
w 180 -1
w 181 -1
w 182 -1
w 183 -1
w 184 -1
w 185 -1
w 186 -1
w 187 -1
w 188 -1
w 189 -1
w 190 -1
w 191 -1
w 192 -1
w 193 -1
w 194 -1
w 195 -1
w 196 -1
w 197 -1
w 198 -1
w 199 -1
w 200 -1
w 201 -1
w 202 -1
w 203 -1
w 204 -1
w 205 -1
w 206 -1
w 207 -1
w 208 -1
w 209 -1
w 210 -1
w 211 -1
w 212 -1
w 213 -1
w 214 -1
w 215 -1
w 216 -1
w 217 -1
w 218 -1
w 219 -1
w 220 -1
w 221 -1
w 222 -1
w 223 -1
w 224 -1
w 225 -1
w 226 -1
w 227 -1
w 228 -1
w 229 -1
w 230 -1
w 231 -1
w 232 -1
w 233 -1
w 234 -1
w 235 -1
w 236 -1
w 237 -1
w 238 -1
w 239 -1
w 240 -1
w 241 -1
w 242 -1
w 243 -1
w 244 -1
w 245 -1
w 246 -1
w 247 -1
w 248 -1
w 249 -1
w 250 -1
w 251 -1
w 252 -1
w 253 -1
w 254 -1
w 255 -1
w 256 -1
w 257 -1
w 258 -1
w 259 -1
w 260 -1
w 261 -1
w 262 -1
w 263 -1
w 264 -1
w 265 -1
w 266 -1
w 267 -1
w 268 -1
w 269 -1
w 270 -1
w 271 -1
w 272 -1
w 273 -1
w 274 -1
w 275 -1
w 276 -1
w 277 -1
w 278 -1
w 279 -1
w 280 -1
w 281 -1
w 282 -1
w 283 -1
w 284 -1
w 285 -1
w 286 -1
w 287 -1
w 288 -1
w 289 -1
w 290 -1
w 291 -1
w 292 -1
w 293 -1
w 294 -1
w 295 -1
w 296 -1
w 297 -1
w 298 -1
w 299 -1
w 300 -1
w 301 -1
w 302 -1
w 303 -1
w 304 -1
w 305 -1
w 306 -1
w 307 -1
w 308 -1
w 309 -1
w 310 -1
w 311 -1
w 312 -1
w 313 -1
w 314 -1
w 315 -1
w 316 -1
w 317 -1
w 318 -1
w 319 -1
w 320 -1
w 321 -1
w 322 -1
w 323 -1
w 324 -1
w 325 -1
w 326 -1
w 327 -1
w 328 -1
w 329 -1
w 330 -1
w 331 -1
w 332 -1
w 333 -1
w 334 -1
w 335 -1
w 336 -1
w 337 -1
w 338 -1
w 339 -1
w 340 -1
w 341 -1
w 342 -1
w 343 -1
w 344 -1
w 345 -1
w 346 -1
w 347 -1
w 348 -1
w 349 -1
w 350 -1
w 351 -1
w 352 -1
w 353 -1
w 354 -1
w 355 -1
w 356 -1
w 357 -1
w 358 -1
w 359 -1
w 360 -1
w 361 -1
w 362 -1
w 363 -1
w 364 -1
w 365 -1
w 366 -1
w 367 -1
w 368 -1
w 369 -1
w 370 -1
w 371 -1
w 372 -1
w 373 -1
w 374 -1
w 375 -1
w 376 -1
w 377 -1
w 378 -1
w 379 -1
w 380 -1
w 381 -1
w 382 -1
w 383 -1
w 384 -1
w 385 -1
w 386 -1
w 387 -1
w 388 -1
w 389 -1
w 390 -1
w 391 -1
w 392 -1
w 393 -1
w 394 -1
w 395 -1
w 396 -1
w 397 -1
w 398 -1
w 399 -1
w 400 -1
w 401 -1
w 402 -1
w 403 -1
w 404 -1
w 405 -1
w 406 -1
w 407 -1
w 408 -1
w 409 -1
w 410 -1
w 411 -1
w 412 -1
w 413 -1
w 414 -1
w 415 -1
w 416 -1
w 417 -1
w 418 -1
w 419 -1
w 420 -1
w 421 -1
w 422 -1
w 423 -1
w 424 -1
w 425 -1
w 426 -1
w 427 -1
w 428 -1
w 429 -1
w 430 -1
w 431 -1
w 432 -1
w 433 -1
w 434 -1
w 435 -1
w 436 -1
w 437 -1
w 438 -1
w 439 -1
w 440 -1
w 441 -1
w 442 -1
w 443 -1
w 444 -1
w 445 -1
w 446 -1
w 447 -1
w 448 -1
w 449 -1
w 450 -1
w 451 -1
w 452 -1
w 453 -1
w 454 -1
w 455 -1
w 456 -1
w 457 -1
w 458 -1
w 459 -1
w 460 -1
w 461 -1
w 462 -1
w 463 -1
w 464 -1
w 465 -1
w 466 -1
w 27 -1
